p cnf 173 391
1 0
2 0
3 0
4 0
5 0
6 0
7 0
8 0
9 0
10 0
-11 0
-12 0
-13 0
-14 0
-15 0
-16 0
-17 0
-18 0
-19 0
-20 0
21 -22 0
-23 21 0
22 23 -21 0
1 -21 0
-1 21 0
24 -21 0
-24 21 0
-25 26 0
-27 26 0
26 -28 0
-29 26 0
26 -30 0
-31 26 0
-32 26 0
33 0
2 -26 0
-2 26 0
-27 34 0
-28 34 0
-29 34 0
-30 34 0
-31 34 0
-32 34 0
35 0
36 -34 0
-36 34 0
-28 37 0
-29 37 0
-30 37 0
-31 37 0
-32 37 0
28 29 30 31 32 -37 0
38 -37 0
-38 37 0
-29 39 0
-30 39 0
-31 39 0
-32 39 0
29 30 31 32 -39 0
40 -39 0
-40 39 0
41 -39 0
-41 39 0
42 -39 0
-42 39 0
43 -39 0
-43 39 0
44 -45 0
44 -46 0
-47 44 0
44 -48 0
44 -49 0
-50 44 0
44 -51 0
52 0
3 -44 0
-3 44 0
-46 53 0
-47 53 0
-48 53 0
-49 53 0
-50 53 0
-51 53 0
54 0
55 -53 0
-55 53 0
-47 56 0
-48 56 0
-49 56 0
-50 56 0
-51 56 0
47 48 49 50 51 -56 0
57 -56 0
-57 56 0
-48 58 0
-49 58 0
-50 58 0
-51 58 0
48 49 50 51 -58 0
59 -58 0
-59 58 0
60 -58 0
-60 58 0
61 -58 0
-61 58 0
62 -58 0
-62 58 0
63 -64 0
63 -65 0
-66 63 0
64 65 66 -63 0
4 -63 0
-4 63 0
-65 67 0
-66 67 0
65 66 -67 0
68 -67 0
-68 67 0
69 -66 0
-69 66 0
70 -71 0
-72 70 0
-73 70 0
-74 70 0
70 -75 0
71 72 73 74 75 -70 0
5 -70 0
-5 70 0
-72 76 0
-73 76 0
-74 76 0
-75 76 0
72 73 74 75 -76 0
77 -76 0
-77 76 0
-73 78 0
-74 78 0
-75 78 0
73 74 75 -78 0
79 -78 0
-79 78 0
80 -78 0
-80 78 0
81 -78 0
-81 78 0
-82 83 0
-84 83 0
-85 83 0
83 -86 0
83 -87 0
-88 83 0
89 0
6 -83 0
-6 83 0
-84 90 0
-85 90 0
-86 90 0
-87 90 0
-88 90 0
84 85 86 87 88 -90 0
91 -90 0
-91 90 0
-85 92 0
-86 92 0
-87 92 0
-88 92 0
85 86 87 88 -92 0
93 -92 0
-93 92 0
-86 94 0
-87 94 0
-88 94 0
86 87 88 -94 0
95 -94 0
-95 94 0
-87 96 0
-88 96 0
87 88 -96 0
97 -96 0
-97 96 0
98 -96 0
-98 96 0
-99 100 0
100 -101 0
100 -102 0
-103 100 0
100 -104 0
99 101 102 103 104 -100 0
7 -100 0
-7 100 0
-101 105 0
-102 105 0
-103 105 0
-104 105 0
101 102 103 104 -105 0
106 -105 0
-106 105 0
107 -105 0
-107 105 0
108 -105 0
-108 105 0
109 -105 0
-109 105 0
110 -111 0
-112 110 0
-113 110 0
-114 110 0
110 -115 0
111 112 113 114 115 -110 0
8 -110 0
-8 110 0
-112 116 0
-113 116 0
-114 116 0
-115 116 0
112 113 114 115 -116 0
117 -116 0
-117 116 0
-113 118 0
-114 118 0
-115 118 0
113 114 115 -118 0
119 -118 0
-119 118 0
120 -118 0
-120 118 0
121 -118 0
-121 118 0
-122 123 0
-124 123 0
-125 123 0
123 -126 0
123 -127 0
-128 123 0
-129 123 0
130 0
9 -123 0
-9 123 0
-124 131 0
-125 131 0
-126 131 0
-127 131 0
-128 131 0
-129 131 0
132 0
133 -131 0
-133 131 0
-125 134 0
-126 134 0
-127 134 0
-128 134 0
-129 134 0
125 126 127 128 129 -134 0
135 -134 0
-135 134 0
-126 136 0
-127 136 0
-128 136 0
-129 136 0
126 127 128 129 -136 0
137 -136 0
-137 136 0
-127 138 0
-128 138 0
-129 138 0
127 128 129 -138 0
139 -138 0
-139 138 0
140 -138 0
-140 138 0
141 -138 0
-141 138 0
142 -143 0
-144 142 0
-145 142 0
-146 142 0
142 -147 0
143 144 145 146 147 -142 0
10 -142 0
-10 142 0
-144 148 0
-145 148 0
-146 148 0
-147 148 0
144 145 146 147 -148 0
149 -148 0
-149 148 0
-145 150 0
-146 150 0
-147 150 0
145 146 147 -150 0
151 -150 0
-151 150 0
-146 152 0
-147 152 0
146 147 -152 0
153 -152 0
-153 152 0
154 -152 0
-154 152 0
11 -155 0
-11 155 0
12 -156 0
-12 156 0
13 -157 0
-13 157 0
14 -158 0
-14 158 0
15 -159 0
-15 159 0
16 -160 0
-16 160 0
17 -161 0
-17 161 0
18 -162 0
-18 162 0
19 -163 0
-19 163 0
20 -164 0
-20 164 0
22 -165 0
-165 -23 0
-165 -25 0
-165 -27 0
28 -165 0
-165 -29 0
30 -165 0
-165 -31 0
-165 -32 0
45 -165 0
46 -165 0
-165 -47 0
48 -165 0
49 -165 0
-165 -50 0
51 -165 0
64 -165 0
65 -165 0
-165 -66 0
71 -165 0
-165 -72 0
-165 -73 0
-165 -74 0
75 -165 0
-165 -82 0
-165 -84 0
-165 -85 0
86 -165 0
87 -165 0
-165 -88 0
-165 -99 0
101 -165 0
102 -165 0
-165 -103 0
104 -165 0
111 -165 0
-165 -112 0
-165 -113 0
-165 -114 0
115 -165 0
-165 -122 0
-165 -124 0
-165 -125 0
126 -165 0
127 -165 0
-165 -128 0
-165 -129 0
143 -165 0
-165 -144 0
-165 -145 0
-165 -146 0
147 -165 0
-165 -155 0
-165 -156 0
-165 -157 0
-165 -158 0
-165 -159 0
-165 -160 0
-165 -161 0
-165 -162 0
-165 -163 0
-165 -164 0
165 0
-166 0
-167 0
-168 0
-169 0
-170 0
-171 0
-172 0
-173 0
